122 5
10 10 10 10 10 

0 0 0 0 0 0 5 2 14 26 38 50 
0 0 0 0 0 0 4 3 7 11 12 
8 1 0 0 0 0 2 10 4 
9 4 0 0 0 0 1 5 
4 4 0 0 0 0 2 9 6 
1 3 0 0 0 0 1 8 
3 3 0 0 0 0 1 10 
4 3 0 0 0 0 1 13 
5 4 0 0 0 0 1 13 
8 1 0 0 0 0 2 13 69 
1 1 0 0 0 0 1 13 
8 1 0 0 0 0 1 13 
0 0 0 0 0 0 1 62 
0 0 0 0 0 0 4 15 17 18 19 
9 1 0 0 0 0 1 16 
2 3 0 0 0 0 3 22 21 20 
10 4 0 0 0 0 3 22 21 20 
1 5 0 0 0 0 1 21 
6 2 0 0 0 0 1 20 
10 2 0 0 0 0 1 23 
5 1 0 0 0 0 1 23 
7 5 0 0 0 0 1 23 
7 1 0 0 0 0 2 24 66 
6 1 0 0 0 0 1 25 
0 0 0 0 0 0 1 62 
0 0 0 0 0 0 2 27 29 
5 0 0 0 0 1 3 36 35 28 
10 0 0 0 0 3 3 34 33 30 
6 0 0 0 0 1 2 33 31 
6 0 0 0 0 3 1 31 
7 0 0 0 0 3 2 32 44 
3 0 0 0 0 3 1 37 
2 0 0 0 0 1 1 37 
2 0 0 0 0 4 1 37 
2 0 0 0 0 3 1 37 
6 0 0 0 0 3 1 37 
0 0 0 0 0 0 1 62 
0 0 0 0 0 0 4 39 40 42 43 
1 0 0 1 0 0 1 41 
6 0 0 4 0 0 1 41 
1 0 0 1 0 0 3 46 45 44 
5 0 0 1 0 0 2 46 45 
6 0 0 4 0 0 1 44 
8 0 0 1 0 0 1 47 
1 0 0 3 0 0 1 47 
7 0 0 3 0 0 1 47 
2 0 0 4 0 0 2 48 65 
7 0 0 3 0 0 1 49 
0 0 0 0 0 0 1 62 
0 0 0 0 0 0 3 51 52 55 
6 0 0 0 1 0 2 56 54 
10 0 0 0 2 0 1 53 
1 0 0 0 4 0 2 57 56 
7 0 0 0 2 0 2 58 57 
7 0 0 0 1 0 2 58 57 
7 0 0 0 4 0 2 60 58 
2 0 0 0 2 0 2 60 59 
7 0 0 0 4 0 1 59 
2 0 0 0 2 0 1 61 
3 0 0 0 3 0 1 61 
0 0 0 0 0 0 1 62 
0 0 0 0 0 0 2 63 75 
0 0 0 0 0 0 4 64 66 67 73 
2 0 0 0 1 0 1 65 
7 0 0 0 5 0 1 68 
1 0 0 0 3 0 1 68 
4 0 0 0 1 0 2 72 71 
8 0 0 0 3 0 1 69 
7 0 0 0 3 0 1 70 
5 0 0 0 3 0 1 74 
8 0 0 0 3 0 1 74 
10 0 0 0 2 0 1 74 
2 0 0 0 1 0 1 74 
0 0 0 0 0 0 1 87 
0 0 0 0 0 0 3 76 80 81 
6 0 0 1 0 0 2 85 77 
6 0 0 2 0 0 2 82 78 
2 0 0 3 0 0 2 84 79 
1 0 0 3 0 0 1 83 
1 0 0 3 0 0 1 82 
5 0 0 4 0 0 1 82 
7 0 0 2 0 0 1 86 
1 0 0 3 0 0 1 86 
9 0 0 2 0 0 1 86 
4 0 0 2 0 0 1 86 
0 0 0 0 0 0 1 87 
0 0 0 0 0 0 2 88 90 
8 0 1 0 0 0 3 97 95 89 
6 0 1 0 0 0 3 96 94 91 
2 0 1 0 0 0 3 95 94 92 
6 0 3 0 0 0 1 92 
3 0 4 0 0 0 1 93 
6 0 1 0 0 0 1 98 
3 0 3 0 0 0 1 98 
6 0 3 0 0 0 1 98 
10 0 5 0 0 0 1 98 
4 0 3 0 0 0 1 98 
0 0 0 0 0 0 1 99 
0 0 0 0 0 0 2 100 102 
10 0 0 1 0 0 2 103 101 
8 0 0 3 0 0 2 105 104 
3 0 0 2 0 0 1 103 
3 0 0 3 0 0 1 104 
4 0 0 2 0 0 2 107 106 
1 0 0 3 0 0 2 107 106 
6 0 0 1 0 0 1 109 
10 0 0 5 0 0 1 108 
10 0 0 2 0 0 1 110 
1 0 0 3 0 0 1 110 
0 0 0 0 0 0 1 111 
0 0 0 0 0 0 3 112 114 117 
9 0 0 0 0 1 2 120 113 
4 0 0 0 0 2 2 119 115 
3 0 0 0 0 2 3 121 120 119 
8 0 0 0 0 6 1 116 
5 0 0 0 0 4 1 118 
4 0 0 0 0 2 1 118 
10 0 0 0 0 2 1 122 
6 0 0 0 0 3 1 122 
3 0 0 0 0 2 1 122 
4 0 0 0 0 1 1 122 
0 0 0 0 0 0 0 
